(declare-fun bvlambda_14_ () (_ BitVec 11))
(declare-fun bvlambda_27_ () (_ BitVec 6))
(declare-fun bvlambda_54_ ()Bool         )
(declare-fun a168 () (Array (_ BitVec 1) (_ BitVec 2)))
(assert
(let (($e23 (_ bv0 8)))
(let (($e211 (select a168 true       )))
(let (($e217 (store a168 true        $e211)))
(let (($e218 (select $e217 bvlambda_54_)))
(let (($e228 (   extract      $e218)))
(let (($e256 (concat bvlambda_14_ $e211)))
(let (($e257 (concat $e256 $e211       )))
(let (($e442 (concat $e23 $e228       )))
(let (($e443 (concat $e442 bvlambda_27_)))
(let (($e449      (bvult $e257 $e443)         ))
(let (($e489 (store a168 false $e211     )))
(let (($e493 (select $e489 $e228)))
(let (($e499 (   extract      $e493)))
(let (($e503 (bvand $e499 $e449)))
                  (= $e503 false)
                                                                                                                                                                                                                                                                                                                                                                                                                                                                                                                                                                                                                                                                                                                                                                                                                                                                                                                                                                                                                                                                                                                                                                                                                                                                                                                                                                                                                                                                                                                                                                                                                                                                                                 )   )     )   )                                       )     ))                                                                                                                                                                                        ))                           )         ))     )                                                                                                                      )                      )
